2363.0 32603.0 
2229.0 34030.0 
2252.0 33064.0 
2276.0 32787.0 
2242.0 33182.0 
2262.0 33062.0 
2231.0 33441.0 
2309.0 32721.0 
2231.0 33441.0 
2296.0 32731.0 
2369.0 32567.0 
2268.0 32800.0 
2231.0 33441.0 
2354.0 32651.0 
2248.0 33176.0 
2231.0 33441.0 
2231.0 33441.0 
2266.0 33043.0 
